File: D:\ML4VRP2024\Instances\CVRP\json\X-n172-k51.json exists.
Route #1: 1 140 19 128 82 23 10 5 9 29 
Route #2: 71 2 
Route #3: 166 3 
Route #4: 20 4 
Route #5: 80 6 43 15 
Route #6: 65 18 16 32 91 7 
Route #7: 170 104 78 81 8 
Route #8: 67 171 48 68 13 11 161 114 
Route #9: 12 85 
Route #10: 86 156 154 17 135 14 
Route #11: 139 21 
Route #12: 22 152 131 87 155 149 
Route #13: 49 24 
Route #14: 25 116 
Route #15: 55 26 
Route #16: 27 
Route #17: 28 
Route #18: 151 73 66 30 79 
Route #19: 42 63 45 31 
Route #20: 134 54 33 
Route #21: 34 160 
Route #22: 35 141 
Route #23: 36 157 
Route #24: 127 105 119 37 99 164 93 
Route #25: 38 
Route #26: 136 39 64 
Route #27: 40 109 
Route #28: 84 41 106 
Route #29: 169 77 44 72 56 
Route #30: 133 46 
Route #31: 100 47 
Route #32: 162 50 
Route #33: 51 112 122 108 158 
Route #34: 52 
Route #35: 69 60 53 
Route #36: 57 76 
Route #37: 126 58 
Route #38: 101 59 
Route #39: 61 121 142 94 
Route #40: 132 62 92 110 70 
Route #41: 147 74 
Route #42: 150 75 
Route #43: 167 83 
Route #44: 102 88 
Route #45: 103 107 96 89 98 
Route #46: 95 90 
Route #47: 97 
Route #48: 153 111 
Route #49: 113 
Route #50: 115 
Route #51: 117 
Route #52: 118 
Route #53: 120 145 
Route #54: 123 146 
Route #55: 124 144 
Route #56: 143 125 
Route #57: 129 
Route #58: 130 138 
Route #59: 137 
Route #60: 148 
Route #61: 159 
Route #62: 163 
Route #63: 165 168 
